Traveling Salesman Problem/TSP_generados/Aleatorio1620391018_13.tsp
NAME: Aleatorio1620391018_13.tsp
COMMENT: Randomly generated scenario
TYPE: TSP
DIMENSION: 13
EDGE_WEIGHT_TYPE: ATT
NODE_COORD_SECTION
1 34.93 42.45
2 23.82 32.25
3 26.14 2.2
4 18.86 33.49
5 21.46 17.44
6 29.56 5.6
7 46.01 40.31
8 4.56 47.16
9 30.59 40.71
10 0.6 48.17
11 3.14 11.07
12 18.6 41.19
13 38.38 1.77
