Traveling Salesman Problem/TSP_generados/Aleatorio1620391018_13.opt.tour
NAME: Aleatorio1620391018_13.opt.tour
COMMENT: Optimal solution for Aleatorio1620391018_13 (185.20757088213142)
TYPE: TOUR
DIMENSION: 13
TOUR_SECTION
1 7 13 6 3 5 11 10 8 12 4 2 9
-1
EOF
